8
2147483647 30 7 80 54 88 77 92 
30 2147483647 72 98 31 91 31 2 
7 72 2147483647 93 20 22 80 6 
80 98 93 2147483647 8 66 99 15 
54 31 20 8 2147483647 62 53 41 
88 91 22 66 62 2147483647 98 30 
77 31 80 99 53 98 2147483647 70 
92 2 6 15 41 30 70 2147483647 
